92
25
0 26 29 30 31 32 33 36 38 39 41 43 44 45 48 50 51 52 53 54 56 57 58 60 62 63 64 66 69 70 71 72 73 74 76 77 80 85 88 89
1 26 29 30 31 32 36 37 38 39 41 44 47 48 50 51 52 53 54 57 60 62 63 64 66 67 70 71 72 73 74 75 76 77 79 80 84 85 86 88 89 90
2 26 32 36 37 38 40 42 44 47 50 51 52 53 54 59 60 62 63 64 67 70 71 72 73 74 76 77 80 84 85 86 87 88 89 90
3 26 29 30 32 33 35 36 37 38 39 41 42 45 46 47 51 52 53 54 57 58 60 61 62 63 64 65 66 70 71 72 73 74 76 77 78 80 81 83 84 85 86 88 89
4 25 26 31 32 33 34 35 36 37 39 42 44 45 46 47 51 52 53 54 57 58 60 62 63 64 65 72 73 74 77 78 80 84 85 86 88 89
5 26 29 30 32 36 37 38 39 41 42 44 45 48 50 51 52 53 54 56 57 60 62 63 66 67 69 70 71 72 73 74 76 77 80 84 85 86 88 89
6 26 27 31 32 33 35 36 37 38 41 42 44 46 47 48 51 52 54 57 58 59 61 63 64 66 70 71 73 74 79 80 84 85 88 89 90 91
7 29 31 32 33 34 38 39 40 41 47 51 52 53 54 57 59 60 62 63 66 72 73 76 77 80 83 85 86 87 89
8 26 33 35 36 37 38 40 41 45 46 47 48 50 52 54 57 59 60 64 66 71 73 74 79 80 83 87 89
9 26 31 33 36 38 39 41 42 44 46 51 52 54 59 61 64 65 70 71 72 77 80 86 90
10 26 27 28 30 31 34 36 42 43 44 50 51 53 54 57 59 60 62 63 65 70 71 72 75 81 82 84 85 86 87 88 91
11 26 29 30 31 32 33 38 39 42 44 46 47 51 53 54 56 59 60 61 62 65 66 70 72 74 77 78 80 85 86 87 89
12 33 35 36 40 46 47 49 50 52 53 54 55 56 57 58 60 62 63 64 68 69 74 76 77 80 88 89
13 27 29 30 31 35 36 37 38 44 46 47 50 53 54 57 63 65 66 70 71 77 81 84 86 88 90
14 26 40 41 47 48 54 57 58 60 62 64 65 73 81 87 88 90 91
15 30 32 33 37 39 42 44 50 51 52 66 70 73 78 83 84 85 89
16 25 29 35 39 42 43 47 50 54 57 58 61 62 68 69 74 81 84 85 86 89 90
17 33 35 42 52 55 56 57 60 63 67 69 75 76 79 80 81 86 87 88 89 91
18 35 38 41 44 53 54 76 87
19 34 37 41 42 44 46 51 57 58 63 67 69 70 74 77 80 83 85 88
20 25 32 40 43 52 74 76 82 85 91
21 38 59 70 71 75 79 83 84 89 90
22 36 38 72 73 74
23 34 71 77 81
24 32 37 53 60 67
